c --- [ banner ] -------------------------------------------------------------
c 
c CaDiCaL Radically Simplified CDCL SAT Solver
c Copyright (c) 2016-2021 A. Biere, M. Fleury, N. Froleyks
c 
c Version 1.5.2 a5f15211db36c3956764e18194dd5bd63bf3b5e6
c g++ (GCC) 9.3.0 -Wall -Wextra -O3 -DNDEBUG
c Fri Oct 21 01:27:37 EDT 2022 Linux gra-login3 3.10.0-1160.66.1.el7.x86_64 x86_64
c 
c --- [ limit ] --------------------------------------------------------------
c 
c setting conflict limit to 200000 conflicts (due to '200000')
c 
c --- [ parsing input ] ------------------------------------------------------
c 
c reading DIMACS file from '23.cubes33.adj'
c opening file to read '23.cubes33.adj'
c found 'p cnf 5320 914891' header
c parsed 914891 clauses in 8.24 seconds process time
c closing file '23.cubes33.adj'
c after reading 637829982 bytes 608.3 MB
c 
c --- [ options ] ------------------------------------------------------------
c 
c all options are set to their default value
c 
c --- [ solving ] ------------------------------------------------------------
c 
c time measured in process time since initialization
c 
c  seconds   reductions  redundant  irredundant
c          MB    restarts       trail      variables
c           level   conflicts       glue        remaining
c 
c *  8.24 627  0 0   0    0    0  0% 0 914847 2126 40%
c {  8.60 653  0 0   0    0    0  0% 0 914847 2126 40%
c i  8.99 670 707 0   1   25   18 27% 3 914847 2125 40%
c i  9.51 686 681 0   2   34   24 31% 4 914847 2124 40%
c i  9.68 687 534 0   4   42   29 30% 8 914847 2123 40%
c i  9.91 692 386 0   8   56   38 27% 8 914847 2122 40%
c i 10.05 693 330 0  11   67   47 27% 15 914847 2120 40%
c i 10.12 694 207 0  18  108   63 23% 13 914847 2119 40%
c i 10.25 697 203 0  18  112   66 23% 13 914847 2118 40%
c i 10.26 698 200 0  18  116   67 23% 13 914847 2115 40%
c i 10.32 698 197 0  18  119   68 23% 14 914847 2113 40%
c i 10.34 699 195 0  18  122   68 23% 15 914847 2112 40%
c i 10.35 699 193 0  19  123   68 23% 15 914847 2111 40%
c i 10.50 700 186 0  21  135   77 24% 17 914847 2110 40%
c i 10.51 700 185 0  22  136   77 24% 17 914847 2109 40%
c i 10.51 700 183 0  22  138   78 24% 17 914847 2108 40%
c i 10.67 700 173 0  25  150   86 24% 19 914847 2107 40%
c i 11.09 700 160 0  32  182  108 24% 22 914847 2106 40%
c i 11.10 701 158 0  34  186  111 24% 23 914847 2102 40%
c i 11.17 702 159 0  36  193  117 25% 24 914847 2092 39%
c 
c  seconds    reductions  redundant   irredundant
c          MB     restarts       trail       variables
c            level   conflicts       glue         remaining
c 
c i 11.24 702 163 0  40  212  130 24% 25 914847 2086 39%
c i 11.26 702 164 0  41  226  140 24% 26 914847 2085 39%
c i 11.31 702 158 0  44  245  150 23% 24 914847 2077 39%
c i 11.42 702 158 0  44  255  156 23% 24 914847 2073 39%
c i 11.42 702 158 0  44  258  157 24% 24 914847 2071 39%
c i 11.48 702 156 0  46  266  163 24% 25 914847 2070 39%
c i 11.62 703 142 0  46  298  186 24% 23 914847 2069 39%
c - 13.47 683 140 1  46  301  189 24% 23 297605 2069 39%
c i 13.68 651 134 1  46  317  202 24% 23 297605 2068 39%
c i 13.75 651 131 1  46  329  210 24% 23 297605 2067 39%
c i 13.75 651 130 1  46  330  210 24% 23 297605 2066 39%
c i 13.76 651 129 1  46  336  215 24% 23 297605 2065 39%
c i 13.76 651 128 1  46  338  216 24% 23 297605 2064 39%
c i 13.76 651 128 1  46  339  216 24% 23 297605 2063 39%
c i 13.76 651 127 1  46  340  216 24% 23 297605 2062 39%
c i 13.87 651 123 1  46  353  222 24% 22 297605 2061 39%
c i 13.89 651 122 1  46  356  224 24% 22 297605 2060 39%
c i 13.90 651 122 1  46  364  227 24% 22 297605 2058 39%
c i 13.96 651 122 1  46  372  232 24% 22 297605 2056 39%
c i 13.97 651 122 1  46  377  236 24% 22 297605 2055 39%
c 
c  seconds    reductions  redundant   irredundant
c          MB     restarts       trail       variables
c            level   conflicts       glue         remaining
c 
c i 14.00 651 121 1  46  390  243 24% 22 297605 2050 39%
c i 14.01 651 121 1  46  399  251 24% 22 297605 2049 39%
c i 14.07 651 120 1  47  414  265 24% 23 297605 2048 38%
c i 14.25 651 119 1  49  425  275 24% 23 297605 2047 38%
c i 14.66 652 117 1  56  449  298 24% 23 297605 2046 38%
c i 14.66 652 116 1  56  452  300 24% 23 297605 2045 38%
c i 14.66 652 116 1  56  454  301 24% 23 297605 2044 38%
c i 14.76 652 115 1  56  467  307 24% 23 297605 2043 38%
c i 14.84 652 115 1  56  474  310 24% 22 297605 2040 38%
c i 14.98 652 113 1  56  511  334 24% 21 297605 2039 38%
c i 15.18 652 95 1  56  615  375 23% 18 297605 2038 38%
c i 15.23 652 94 1  56  620  379 23% 18 297605 2037 38%
c i 15.32 652 93 1  56  645  395 23% 19 297605 2036 38%
c i 15.34 652 93 1  57  652  401 23% 19 297605 2035 38%
c i 15.34 652 93 1  57  653  401 23% 19 297605 2034 38%
c i 15.36 652 92 1  57  654  401 23% 19 297605 2033 38%
c i 15.36 652 92 1  57  657  403 23% 19 297605 2032 38%
c i 15.38 652 92 1  57  661  406 23% 19 297605 2031 38%
c i 15.38 652 92 1  57  662  406 23% 19 297605 2030 38%
c i 15.38 652 91 1  57  663  406 23% 19 297605 2029 38%
c 
c  seconds   reductions  redundant   irredundant
c          MB    restarts       trail       variables
c           level   conflicts       glue         remaining
c 
c i 15.38 652 91 1  57  669  408 23% 19 297605 2028 38%
c i 15.38 652 91 1  57  670  408 23% 19 297605 2027 38%
c i 15.43 652 89 1  57  683  419 23% 18 297605 2026 38%
c i 15.44 652 89 1  57  685  420 23% 18 297605 2025 38%
c i 15.44 652 89 1  57  687  421 23% 18 297605 2024 38%
c i 15.44 652 89 1  57  688  421 23% 18 297605 2023 38%
c i 15.48 652 89 1  57  689  421 23% 18 297605 2022 38%
c i 15.48 652 88 1  57  696  426 23% 18 297605 2021 38%
c i 15.50 652 88 1  57  699  428 23% 18 297605 2020 38%
c i 15.54 652 87 1  57  706  433 23% 18 297605 2019 38%
c i 15.57 653 86 1  57  730  453 23% 18 297605 2018 38%
c i 15.65 653 85 1  57  746  468 23% 18 297605 2017 38%
c i 15.67 653 84 1  57  752  470 23% 18 297605 2016 38%
c i 15.68 653 84 1  57  757  471 23% 18 297605 2015 38%
c i 15.76 653 81 1  57  795  495 24% 18 297605 2014 38%
c i 15.78 653 81 1  57  800  498 24% 18 297605 2013 38%
c i 15.78 653 80 1  57  806  500 24% 18 297605 2012 38%
c i 15.79 653 80 1  57  807  500 24% 18 297605 2011 38%
c i 15.79 653 80 1  57  810  502 24% 18 297605 2010 38%
c i 15.81 653 79 1  57  824  510 24% 18 297605 2009 38%
c 
c  seconds   reductions  redundant   irredundant
c          MB    restarts       trail       variables
c           level   conflicts       glue         remaining
c 
c i 15.81 653 78 1  57  825  510 24% 18 297605 2008 38%
c i 15.81 653 78 1  57  826  510 24% 18 297605 2007 38%
c i 15.81 653 78 1  57  827  510 24% 18 297605 2006 38%
c i 15.81 653 78 1  57  829  511 24% 18 297605 2005 38%
c i 15.93 653 77 1  61  888  560 24% 18 297605 2003 38%
c i 16.04 653 77 1  65  906  572 24% 18 297605 2002 38%
c i 16.22 653 76 1  72  942  600 24% 19 297605 2001 38%
c i 16.22 653 76 1  74  948  605 24% 19 297605 2000 38%
c i 16.32 653 75 1  80  987  638 24% 18 297605 1999 38%
c } 16.42 653 75 1  83 1004  655 24% 19 297605 1999 38%
c [ 16.42 653  0 1  83 1004  655  0% 0 297605 1999 38%
c O 16.43 653  0 1  83 1005  655 12% 0 297605 1999 38%
c i 16.43 653  0 1  83 1005  655 12% 0 297605 1997 38%
c i 16.43 653  0 1  83 1006  655 11% 0 297605 1986 37%
c i 16.43 653  0 1  83 1007  655 11% 0 297605 1977 37%
c i 16.50 653  8 1  83 1016  663 23% 5 297605 1976 37%
c i 16.52 653 11 1  83 1021  666 24% 7 297605 1975 37%
c i 16.54 653 14 1  83 1028  672 25% 9 297605 1974 37%
c i 16.54 653 14 1  83 1029  672 25% 9 297605 1973 37%
c i 16.55 653 14 1  83 1031  673 25% 9 297605 1972 37%
c 
c  seconds   reductions  redundant   irredundant
c          MB    restarts       trail       variables
c           level   conflicts       glue         remaining
c 
c i 16.57 653 16 1  83 1040  681 26% 12 297605 1971 37%
c i 16.57 653 16 1  83 1041  681 26% 11 297605 1970 37%
c i 16.58 653 17 1  83 1047  685 26% 12 297605 1969 37%
c i 16.58 653 16 1  83 1048  685 26% 12 297605 1968 37%
c i 16.58 653 16 1  83 1051  687 27% 12 297605 1967 37%
c i 16.63 653 18 1  83 1072  699 27% 15 297605 1966 37%
c i 16.68 653 19 1  83 1100  720 28% 16 297605 1965 37%
c i 16.70 653 19 1  83 1130  747 28% 16 297605 1964 37%
c i 16.70 653 19 1  83 1131  747 28% 16 297605 1963 37%
c i 16.72 653 19 1  83 1174  784 28% 15 297605 1962 37%
c - 17.37 744 19 2  83 1185  725 28% 16 296740 1962 37%
c i 17.47 744 19 2  83 1205  741 28% 16 296740 1961 37%
c i 17.47 744 19 2  83 1207  741 28% 16 296740 1960 37%
c i 17.74 744 21 2  83 1385  869 28% 17 296740 1959 37%
c i 17.75 744 21 2  83 1399  879 28% 17 296740 1958 37%
c i 17.75 744 21 2  83 1400  879 28% 17 296740 1957 37%
c i 17.99 744 27 2  83 1832 1222 29% 21 296740 1956 37%
c - 18.56 743 25 3  84 2511 1420 29% 20 296722 1956 37%
c ] 19.37 743 26 3  84 3004 1745 54% 21 296722 1956 37%
c { 19.37 743 75 3  84 3004 1745 65% 19 296722 1956 37%
c 
c  seconds   reductions  redundant   irredundant
c          MB    restarts       trail       variables
c           level   conflicts       glue         remaining
c 
c F 19.39 743 75 3  85 3007 1747 65% 19 296722 1956 37%
c i 19.39 743 75 3  85 3007 1747 65% 19 296722 1955 37%
c i 19.78 743 73 3  98 3083 1795 63% 19 296722 1954 37%
c i 20.03 743 69 3 115 3184 1866 61% 19 296722 1953 37%
c i 20.25 743 69 3 120 3311 1953 59% 19 296722 1920 36%
c i 20.31 743 68 3 123 3336 1970 58% 19 296722 1901 36%
c i 20.35 743 68 3 130 3361 1988 58% 19 296722 1900 36%
c i 20.50 743 66 3 140 3466 2072 57% 19 296722 1899 36%
c i 20.50 743 66 3 140 3467 2072 57% 19 296722 1898 36%
c i 20.50 743 66 3 141 3468 2072 57% 19 296722 1897 36%
c i 20.50 743 66 3 141 3469 2072 56% 19 296722 1896 36%
c i 20.97 743 63 3 175 3717 2258 54% 19 296722 1895 36%
c - 22.21 721 55 4 209 4279 1841 51% 19 263482 1895 36%
c i 22.27 721 55 4 209 4289 1849 51% 19 263482 1894 36%
c i 22.72 721 48 4 209 4817 2176 51% 18 263482 1893 36%
c i 23.12 721 47 4 220 4941 2265 51% 18 263482 1892 36%
c 2 23.70 721 47 4 220 5003 3251 50% 18 263410 1869 35%
c p 28.06 721 47 4 220 5003 5652 50% 18 263410 1831 34%
c d 28.35 721 47 4 220 5003 5468 50% 18 205955 1830 34%
c } 28.93 721 43 4 245 5453 5810 51% 18 205955 1830 34%
c 
c  seconds   reductions  redundant   irredundant
c          MB    restarts       trail       variables
c           level   conflicts       glue         remaining
c 
c 1 28.93 721 43 4 245 5453 5810 51% 18 205955 1830 34%
c 
c --- [ writing output ] -----------------------------------------------------
c 
c writing simplified CNF to DIMACS file 'simp/23.cubes33.adj.simp1'
c * 28.93 721 43 4 245 5453 5810 51% 18 205955 1830 34%
c opening file to write 'simp/23.cubes33.adj.simp1'
c writing 'p cnf 5320 205955' header
c closing file 'simp/23.cubes33.adj.simp1'
c after writing 73941906 bytes 70.5 MB
c wrote 205955 clauses in 0.57 seconds process time
c 
c --- [ writing extension ] --------------------------------------------------
c 
c writing extension stack to 'simp/23.cubes33.adj.ext1'
c opening file to write 'simp/23.cubes33.adj.ext1'
c closing file 'simp/23.cubes33.adj.ext1'
c after writing 10036 bytes 0.0 MB
c wrote 673 witnesses in 0.00 seconds process time
c 
c --- [ result ] -------------------------------------------------------------
c 
s SATISFIABLE
c 
c --- [ run-time profiling ] -------------------------------------------------
c 
c process time taken by individual solving procedures
c (percentage relative to process time for solving)
c 
c        15.58   75.29% search
c        12.26   59.27% unstable
c         8.24   39.81% parse
c         5.11   24.71% simplify
c         4.36   21.06% probe
c         2.95   14.27% stable
c         0.36    1.75% lucky
c         0.05    0.24% ternary
c   =================================
c        20.69   70.14% solve
c 
c last line shows process time for solving
c (percentage relative to total process time)
c 
c --- [ statistics ] ---------------------------------------------------------
c 
c chronological:              1462        26.81 %  of conflicts
c conflicts:                  5453       263.56    per second
c decisions:                 30623      1480.08    per second
c fixed:                       633        11.90 %  of all variables
c learned:                    5304        97.27 %  per conflict
c learned_lits:             793671       100.00 %  learned literals
c minimized:                     0         0.00 %  learned literals
c shrunken:                 421627        53.12 %  learned literals
c minishrunken:              88235        11.12 %  learned literals
c propagations:             891629         0.04 M  per second
c reduced:                    1171        21.47 %  per conflict
c rephased:                      2      2726.50    interval
c restarts:                    245        22.26    interval
c stabilizing:                   1        36.68 %  of conflicts
c substituted:                  20         0.38 %  of all variables
c subsumed:                   1338         0.06 %  of all clauses
c ternary:                     948         0.58 %  of resolved
c weakened:                     40         2.00    average size
c 
c seconds are measured in process time for solving
c 
c --- [ resources ] ----------------------------------------------------------
c 
c total process time since initialization:        29.50    seconds
c total real time since initialization:           31.18    seconds
c maximum resident set size of process:          853.37    MB
c 
c --- [ shutting down ] ------------------------------------------------------
c 
c exit 10
WARNING! DIMACS header mismatch: wrong number of variables.
============================[ Problem Statistics ]=============================
|                                                                             |
|  Number of variables:          5282                                         |
|  Number of clauses:          205955                                         |
|  Parse time:                   1.03 s                                       |
|  Simplification time:          0.02 s                                       |
|                                                                             |
============================[ Search Statistics ]====================================================
| Conflicts |          ORIGINAL         |          LEARNT          | Num Sols |      SUBGRAPHS      |
|           |    Vars  Clauses Literals |    Limit  Clauses Lit/Cl |          | Canonical Noncanon. |
=====================================================================================================
|       107 |    5204   205962 16829896 |     2000      107     19 |        0 |        31         7 |
|       305 |    5204   206010 16830539 |     2000      305     24 |        0 |        70        55 |
|       605 |    5204   206085 16831732 |     2000      605     45 |        0 |       108       130 |
|      1017 |    5204   206160 16833220 |     2000     1017     58 |        0 |       160       205 |
|      1549 |    5204   206186 16833516 |     2000     1549     67 |        0 |       164       231 |
|      2329 |    5204   206207 16833973 |     3599     1328     47 |        0 |       176       252 |
|      3518 |    5204   206257 16834573 |     3599     2517     64 |        0 |       197       302 |
|      5389 |    5204   206420 16837504 |     5002     2591     53 |        0 |       280       465 |
|      8062 |    5204   206531 16839456 |     6301     2763     50 |        0 |       372       576 |
|     12309 |    5204   206934 16845179 |     7552     3861     49 |        0 |       638       979 |
|     18705 |    5192   207564 16852323 |     8777     6482     53 |        0 |       926      1609 |
|     28391 |    5192   208601 16866332 |    11206     6797     41 |        0 |      1399      2646 |
=====================================================================================================
Number of solutions   : 0
Canonical subgraphs   : 1817           (177 /sec)
          order  3    : 1              (200000 /sec)
          order  4    : 1              (500000 /sec)
          order  5    : 1              (200000 /sec)
          order  6    : 1              (52632 /sec)
          order  7    : 2              (10582 /sec)
          order  8    : 6              (2574 /sec)
          order  9    : 21             (1097 /sec)
          order 10    : 56             (792 /sec)
          order 11    : 67             (691 /sec)
          order 12    : 99             (457 /sec)
          order 13    : 78             (305 /sec)
          order 14    : 530            (203 /sec)
          order 15    : 373            (148 /sec)
          order 16    : 356            (132 /sec)
          order 17    : 176            (125 /sec)
          order 18    : 35             (124 /sec)
          order 19    : 7              (133 /sec)
          order 20    : 7              (134 /sec)
          order 21    : 0              (-nan /sec)
Noncanonical subgraphs: 3201           (1442 /sec)
          order  3    : 0              (-nan /sec)
          order  4    : 0              (-nan /sec)
          order  5    : 0              (-nan /sec)
          order  6    : 0              (-nan /sec)
          order  7    : 0              (-nan /sec)
          order  8    : 0              (-nan /sec)
          order  9    : 0              (-nan /sec)
          order 10    : 0              (-nan /sec)
          order 11    : 0              (-nan /sec)
          order 12    : 0              (-nan /sec)
          order 13    : 404            (10814 /sec)
          order 14    : 1780           (1656 /sec)
          order 15    : 1004           (958 /sec)
          order 16    : 3              (3989 /sec)
          order 17    : 1              (450 /sec)
          order 18    : 0              (-nan /sec)
          order 19    : 0              (-nan /sec)
          order 20    : 0              (-nan /sec)
Canonicity checking   : 10.2876 s
Noncanonicity checking: 2.21939 s
Total canonicity time : 12.507 s
database reductions   : 9
restarts              : 127
conflicts             : 41763          (1108 /sec)
decisions             : 68742          (0.00 % random) (1823 /sec)
propagations          : 4160757        (110360 /sec)
conflict literals     : 3288065        (51.58 % deleted)
actual reward         : 0.126869
Memory used           : 98.00 MB
CPU time              : 37.7015 s

UNSATISFIABLE
